1 3 4 5 6 11 12 13 15 18 21 22 25 27 30 31 32 33 34 35 36 37 39 40 42 43 45 46 49 51 52 54 59 60 64 66 70 73 77 79 80 82 85 87 88 89 90 91 93 94 96 100 101 102 103 105 107 110 112 116 117 123 126 129 130 132 135 138 139 140 142 143 145 146 150 151 155 158 159 160 161 162 164 167 170 171 177 178 180 181 182 183 185 187 188 191 194 196 198 199 201 204 207 209 212 213 215 216 217 218 223 224 225 227 229 230 231 232 233 236 237 239 241 242 244 246 247 248 251 252 255 260 262 266 269 270 272 273 275 278 280 285 295 299 300 301 303 304 308 311 312 313 314 315 318 320 321 323 325 326 331 333 334 337 338 340 342 343 344 345 346 348 351 353 357 358 361 362 363 364 366 368 369 370 372 373 374 377 378 388 389 390 392 394 395 398 403 405 411 412 413 414 416 420 423 424 427 429 431 433 434 437 438 441 442 443 444 445 446 450 451 452 454 456 457 458 459 460 461 464 465 469 473 476 478 481 483 485 487 490 492 495 497 499 500